NAME        zimpx_ex
ROWS
 N  OBJECTIV
 E  assign_1
 E  assign_2
 E  assign_3
 E  assign_4
 E  assign_5
 E  assign_6
 E  assign_7
 E  assign_8
 E  assign_9
 L  build_1
 L  build_2
 L  build_3
 L  build_4
 L  build_5
 L  build_6
 L  build_7
 L  build_8
 L  build_9
 L  build_10
 L  build_11
 L  build_12
 L  build_13
 L  build_14
 L  build_15
 L  build_16
 L  build_17
 L  build_18
 L  build_19
 L  build_20
 L  build_21
 L  build_22
 L  build_23
 L  build_24
 L  build_25
 L  build_26
 L  build_27
 L  build_28
 L  build_29
 L  build_30
 L  build_31
 L  build_32
 L  build_33
 L  build_34
 L  build_35
 L  build_36
 L  limit_1
 L  limit_2
 L  limit_3
 L  limit_4
COLUMNS
    MARK0000  'MARKER'                 'INTORG'
    x$A#1     OBJECTIV            55
    x$A#1     limit_1             10
    x$A#1     build_1              1
    x$A#1     assign_1             1
    x$A#2     OBJECTIV             4
    x$A#2     limit_1             14
    x$A#2     build_2              1
    x$A#2     assign_2             1
    x$A#3     OBJECTIV            17
    x$A#3     limit_1             17
    x$A#3     build_3              1
    x$A#3     assign_3             1
    x$A#4     OBJECTIV            33
    x$A#4     limit_1              8
    x$A#4     build_4              1
    x$A#4     assign_4             1
    x$A#5     OBJECTIV            47
    x$A#5     limit_1              9
    x$A#5     build_5              1
    x$A#5     assign_5             1
    x$A#6     OBJECTIV            98
    x$A#6     limit_1             12
    x$A#6     build_6              1
    x$A#6     assign_6             1
    x$A#7     OBJECTIV            19
    x$A#7     limit_1             11
    x$A#7     build_7              1
    x$A#7     assign_7             1
    x$A#8     OBJECTIV            10
    x$A#8     limit_1             15
    x$A#8     build_8              1
    x$A#8     assign_8             1
    x$A#9     OBJECTIV             6
    x$A#9     limit_1             16
    x$A#9     build_9              1
    x$A#9     assign_9             1
    x$B#1     OBJECTIV            42
    x$B#1     limit_2             10
    x$B#1     build_10             1
    x$B#1     assign_1             1
    x$B#2     OBJECTIV            12
    x$B#2     limit_2             14
    x$B#2     build_11             1
    x$B#2     assign_2             1
    x$B#3     OBJECTIV             4
    x$B#3     limit_2             17
    x$B#3     build_12             1
    x$B#3     assign_3             1
    x$B#4     OBJECTIV            23
    x$B#4     limit_2              8
    x$B#4     build_13             1
    x$B#4     assign_4             1
    x$B#5     OBJECTIV            16
    x$B#5     limit_2              9
    x$B#5     build_14             1
    x$B#5     assign_5             1
    x$B#6     OBJECTIV            78
    x$B#6     limit_2             12
    x$B#6     build_15             1
    x$B#6     assign_6             1
    x$B#7     OBJECTIV            47
    x$B#7     limit_2             11
    x$B#7     build_16             1
    x$B#7     assign_7             1
    x$B#8     OBJECTIV             9
    x$B#8     limit_2             15
    x$B#8     build_17             1
    x$B#8     assign_8             1
    x$B#9     OBJECTIV            82
    x$B#9     limit_2             16
    x$B#9     build_18             1
    x$B#9     assign_9             1
    x$C#1     OBJECTIV            17
    x$C#1     limit_3             10
    x$C#1     build_19             1
    x$C#1     assign_1             1
    x$C#2     OBJECTIV            34
    x$C#2     limit_3             14
    x$C#2     build_20             1
    x$C#2     assign_2             1
    x$C#3     OBJECTIV            65
    x$C#3     limit_3             17
    x$C#3     build_21             1
    x$C#3     assign_3             1
    x$C#4     OBJECTIV            25
    x$C#4     limit_3              8
    x$C#4     build_22             1
    x$C#4     assign_4             1
    x$C#5     OBJECTIV             7
    x$C#5     limit_3              9
    x$C#5     build_23             1
    x$C#5     assign_5             1
    x$C#6     OBJECTIV            67
    x$C#6     limit_3             12
    x$C#6     build_24             1
    x$C#6     assign_6             1
    x$C#7     OBJECTIV            45
    x$C#7     limit_3             11
    x$C#7     build_25             1
    x$C#7     assign_7             1
    x$C#8     OBJECTIV            13
    x$C#8     limit_3             15
    x$C#8     build_26             1
    x$C#8     assign_8             1
    x$C#9     OBJECTIV            54
    x$C#9     limit_3             16
    x$C#9     build_27             1
    x$C#9     assign_9             1
    x$D#1     OBJECTIV            60
    x$D#1     limit_4             10
    x$D#1     build_28             1
    x$D#1     assign_1             1
    x$D#2     OBJECTIV             8
    x$D#2     limit_4             14
    x$D#2     build_29             1
    x$D#2     assign_2             1
    x$D#3     OBJECTIV            79
    x$D#3     limit_4             17
    x$D#3     build_30             1
    x$D#3     assign_3             1
    x$D#4     OBJECTIV            24
    x$D#4     limit_4              8
    x$D#4     build_31             1
    x$D#4     assign_4             1
    x$D#5     OBJECTIV            28
    x$D#5     limit_4              9
    x$D#5     build_32             1
    x$D#5     assign_5             1
    x$D#6     OBJECTIV            19
    x$D#6     limit_4             12
    x$D#6     build_33             1
    x$D#6     assign_6             1
    x$D#7     OBJECTIV            62
    x$D#7     limit_4             11
    x$D#7     build_34             1
    x$D#7     assign_7             1
    x$D#8     OBJECTIV            18
    x$D#8     limit_4             15
    x$D#8     build_35             1
    x$D#8     assign_8             1
    x$D#9     OBJECTIV            45
    x$D#9     limit_4             16
    x$D#9     build_36             1
    x$D#9     assign_9             1
    z$A       OBJECTIV           500
    z$A       build_9             -1
    z$A       build_8             -1
    z$A       build_7             -1
    z$A       build_6             -1
    z$A       build_5             -1
    z$A       build_4             -1
    z$A       build_3             -1
    z$A       build_2             -1
    z$A       build_1             -1
    z$B       OBJECTIV           600
    z$B       build_18            -1
    z$B       build_17            -1
    z$B       build_16            -1
    z$B       build_15            -1
    z$B       build_14            -1
    z$B       build_13            -1
    z$B       build_12            -1
    z$B       build_11            -1
    z$B       build_10            -1
    z$C       OBJECTIV           700
    z$C       build_27            -1
    z$C       build_26            -1
    z$C       build_25            -1
    z$C       build_24            -1
    z$C       build_23            -1
    z$C       build_22            -1
    z$C       build_21            -1
    z$C       build_20            -1
    z$C       build_19            -1
    z$D       OBJECTIV           800
    z$D       build_36            -1
    z$D       build_35            -1
    z$D       build_34            -1
    z$D       build_33            -1
    z$D       build_32            -1
    z$D       build_31            -1
    z$D       build_30            -1
    z$D       build_29            -1
    z$D       build_28            -1
    MARK0001  'MARKER'                 'INTEND'
RHS
    RHS       assign_1             1
    RHS       assign_2             1
    RHS       assign_3             1
    RHS       assign_4             1
    RHS       assign_5             1
    RHS       assign_6             1
    RHS       assign_7             1
    RHS       assign_8             1
    RHS       assign_9             1
    RHS       limit_1             40
    RHS       limit_2             55
    RHS       limit_3             73
    RHS       limit_4             90
BOUNDS
 LO BOUND     x$A#1                0
 UP BOUND     x$A#1                1
 LO BOUND     x$A#2                0
 UP BOUND     x$A#2                1
 LO BOUND     x$A#3                0
 UP BOUND     x$A#3                1
 LO BOUND     x$A#4                0
 UP BOUND     x$A#4                1
 LO BOUND     x$A#5                0
 UP BOUND     x$A#5                1
 LO BOUND     x$A#6                0
 UP BOUND     x$A#6                1
 LO BOUND     x$A#7                0
 UP BOUND     x$A#7                1
 LO BOUND     x$A#8                0
 UP BOUND     x$A#8                1
 LO BOUND     x$A#9                0
 UP BOUND     x$A#9                1
 LO BOUND     x$B#1                0
 UP BOUND     x$B#1                1
 LO BOUND     x$B#2                0
 UP BOUND     x$B#2                1
 LO BOUND     x$B#3                0
 UP BOUND     x$B#3                1
 LO BOUND     x$B#4                0
 UP BOUND     x$B#4                1
 LO BOUND     x$B#5                0
 UP BOUND     x$B#5                1
 LO BOUND     x$B#6                0
 UP BOUND     x$B#6                1
 LO BOUND     x$B#7                0
 UP BOUND     x$B#7                1
 LO BOUND     x$B#8                0
 UP BOUND     x$B#8                1
 LO BOUND     x$B#9                0
 UP BOUND     x$B#9                1
 LO BOUND     x$C#1                0
 UP BOUND     x$C#1                1
 LO BOUND     x$C#2                0
 UP BOUND     x$C#2                1
 LO BOUND     x$C#3                0
 UP BOUND     x$C#3                1
 LO BOUND     x$C#4                0
 UP BOUND     x$C#4                1
 LO BOUND     x$C#5                0
 UP BOUND     x$C#5                1
 LO BOUND     x$C#6                0
 UP BOUND     x$C#6                1
 LO BOUND     x$C#7                0
 UP BOUND     x$C#7                1
 LO BOUND     x$C#8                0
 UP BOUND     x$C#8                1
 LO BOUND     x$C#9                0
 UP BOUND     x$C#9                1
 LO BOUND     x$D#1                0
 UP BOUND     x$D#1                1
 LO BOUND     x$D#2                0
 UP BOUND     x$D#2                1
 LO BOUND     x$D#3                0
 UP BOUND     x$D#3                1
 LO BOUND     x$D#4                0
 UP BOUND     x$D#4                1
 LO BOUND     x$D#5                0
 UP BOUND     x$D#5                1
 LO BOUND     x$D#6                0
 UP BOUND     x$D#6                1
 LO BOUND     x$D#7                0
 UP BOUND     x$D#7                1
 LO BOUND     x$D#8                0
 UP BOUND     x$D#8                1
 LO BOUND     x$D#9                0
 UP BOUND     x$D#9                1
 LO BOUND     z$A                  0
 UP BOUND     z$A                  1
 LO BOUND     z$B                  0
 UP BOUND     z$B                  1
 LO BOUND     z$C                  0
 UP BOUND     z$C                  1
 LO BOUND     z$D                  0
 UP BOUND     z$D                  1
ENDATA